NAME: salesianos-n15-k1
COMMENT: CVRP del colegio salesianos con 14 alumnos y un vehículo
TYPE: CVRP
DIMENSION: 15
EDGE_WEIGHT_TYPE: GEO
CAPACITY: 30
NODE_COORD_SECTION
0 42.8134578 -1.6428109 Colegio
1 42.815528 -1.638828 Alumno1
2 42.8111695 -1.6612658 Alumno2
3 42.8309921 -1.6700768 Alumno3
4 42.8366944 -1.6368892 Alumno4
5 42.8206166 -1.6048427 Alumno5
6 42.7852571 -1.6369082 Alumno6
7 42.7837692 -1.700686 Alumno7
8 42.8259158 -1.7047568 Alumno8
9 42.8025492 -1.7027189 Alumno9
10 42.8113453 -1.6562724 Alumno10
11 42.8074507 -1.6470874 Alumno11
12 42.8134388 -1.6368784 Alumno12
13 42.8242965 -1.632078 Alumno13
14 42.8309537 -1.6091022 Alumno14
DEMAND_SECTION
0 0
1 1
2 1
3 1
4 1
5 1
6 1
7 1
8 1
9 1
10 1
11 1
12 1
13 1
14 1
DEPOT_SECTION
0
-1
EOF